; benchmark generated from python API
(set-info :status unknown)
(declare-fun x_days () (_ BitVec 32))
(assert
 (bvsle (_ bv4294930771 32) x_days))
(assert
 (bvsge (_ bv36523 32) x_days))
(assert
 (bvsge x_days (_ bv7214 32)))
(assert
 (bvsle x_days (_ bv7304 32)))
(assert
 (let ((?x2591 (bvadd x_days (_ bv730179 32))))
(let ((?x5422 (bvsmod ?x2591 (_ bv146097 32))))
(let ((?x4802 (bvsdiv ?x5422 (_ bv36524 32))))
(let ((?x3057 (ite (bvsle (_ bv4 32) ?x4802) (_ bv3 32) ?x4802)))
(let ((?x5995 (bvsub ?x5422 (bvmul ?x3057 (_ bv36524 32)))))
(let ((?x4757 (bvsmod ?x5995 (_ bv1461 32))))
(let ((?x6059 (bvsdiv ?x4757 (_ bv365 32))))
(let ((?x4457 (ite (bvsle (_ bv4 32) ?x6059) (_ bv3 32) ?x6059)))
(let ((?x4749 (bvadd (bvadd (bvmul (bvsdiv ?x2591 (_ bv146097 32)) (_ bv400 32)) (bvmul ?x3057 (_ bv100 32))) (bvmul (bvsdiv ?x5995 (_ bv1461 32)) (_ bv4 32)))))
(let ((?x4728 (bvadd (bvadd ?x4749 ?x4457) (_ bv1 32))))
(let (($x6055 (or (and (= (bvsmod ?x4728 (_ bv4 32)) (_ bv0 32)) (and (distinct (bvsmod ?x4728 (_ bv100 32)) (_ bv0 32)) true)) (= (bvsmod ?x4728 (_ bv400 32)) (_ bv0 32)))))
(let ((?x5116 (bvsub ?x4757 (bvmul ?x4457 (_ bv365 32)))))
(let ((?x1650 (ite $x6055 (_ bv31 32) (_ bv31 32))))
(let (($x1311 (bvsge ?x5116 ?x1650)))
(let ((?x5969 (ite $x1311 (bvadd (bvsub ?x5116 ?x1650) (_ bv1 32)) (bvadd (bvsub ?x5116 (ite $x6055 (_ bv0 32) (_ bv0 32))) (_ bv1 32)))))
(let ((?x2752 (ite $x6055 (_ bv60 32) (_ bv59 32))))
(let (($x4678 (bvsge ?x5116 ?x2752)))
(let ((?x2232 (ite $x6055 (_ bv91 32) (_ bv90 32))))
(let (($x2162 (bvsge ?x5116 ?x2232)))
(let ((?x5289 (ite $x2162 (bvadd (bvsub ?x5116 ?x2232) (_ bv1 32)) (ite $x4678 (bvadd (bvsub ?x5116 ?x2752) (_ bv1 32)) ?x5969))))
(let ((?x3938 (ite $x6055 (_ bv121 32) (_ bv120 32))))
(let (($x1517 (bvsge ?x5116 ?x3938)))
(let ((?x2858 (ite $x6055 (_ bv152 32) (_ bv151 32))))
(let (($x900 (bvsge ?x5116 ?x2858)))
(let ((?x2127 (ite $x900 (bvadd (bvsub ?x5116 ?x2858) (_ bv1 32)) (ite $x1517 (bvadd (bvsub ?x5116 ?x3938) (_ bv1 32)) ?x5289))))
(let ((?x1239 (ite $x6055 (_ bv182 32) (_ bv181 32))))
(let (($x4178 (bvsge ?x5116 ?x1239)))
(let ((?x2842 (ite $x6055 (_ bv213 32) (_ bv212 32))))
(let (($x3725 (bvsge ?x5116 ?x2842)))
(let ((?x2441 (ite $x3725 (bvadd (bvsub ?x5116 ?x2842) (_ bv1 32)) (ite $x4178 (bvadd (bvsub ?x5116 ?x1239) (_ bv1 32)) ?x2127))))
(let ((?x5802 (ite $x6055 (_ bv244 32) (_ bv243 32))))
(let (($x4238 (bvsge ?x5116 ?x5802)))
(let ((?x482 (ite $x6055 (_ bv274 32) (_ bv273 32))))
(let (($x2630 (bvsge ?x5116 ?x482)))
(let ((?x1915 (ite $x2630 (bvadd (bvsub ?x5116 ?x482) (_ bv1 32)) (ite $x4238 (bvadd (bvsub ?x5116 ?x5802) (_ bv1 32)) ?x2441))))
(let ((?x1820 (ite $x6055 (_ bv305 32) (_ bv304 32))))
(let (($x5166 (bvsge ?x5116 ?x1820)))
(let ((?x4390 (ite $x6055 (_ bv335 32) (_ bv334 32))))
(let (($x4696 (bvsge ?x5116 ?x4390)))
(let ((?x3075 (ite $x4696 (bvadd (bvsub ?x5116 ?x4390) (_ bv1 32)) (ite $x5166 (bvadd (bvsub ?x5116 ?x1820) (_ bv1 32)) ?x1915))))
(let ((?x3860 (ite $x900 (_ bv6 32) (ite $x1517 (_ bv5 32) (ite $x2162 (_ bv4 32) (ite $x4678 (_ bv3 32) (ite $x1311 (_ bv2 32) (_ bv1 32))))))))
(let ((?x5247 (ite $x5166 (_ bv11 32) (ite $x2630 (_ bv10 32) (ite $x4238 (_ bv9 32) (ite $x3725 (_ bv8 32) (ite $x4178 (_ bv7 32) ?x3860)))))))
(let ((?x4231 (bvadd (ite $x4696 (_ bv12 32) ?x5247) (bvadd (bvmul (_ bv1 32) (_ bv12 32)) (_ bv0 32)))))
(let ((?x2545 (bvsub (ite (bvuge ?x4231 (_ bv2147483648 32)) (bvsub ?x4231 (_ bv0 32)) ?x4231) (_ bv1 32))))
(let ((?x1391 (bvsmod ?x2545 (_ bv12 32))))
(let ((?x5611 (bvadd ?x1391 (_ bv1 32))))
(let ((?x3406 (ite (or (= ?x5611 (_ bv4 32)) (= ?x5611 (_ bv6 32)) (= ?x5611 (_ bv9 32)) (= ?x5611 (_ bv11 32))) (_ bv30 32) (_ bv31 32))))
(let ((?x4154 (bvsdiv ?x2545 (_ bv12 32))))
(let ((?x5455 (ite (and (bvuge ?x2545 (_ bv2147483648 32)) (and (distinct (_ bv0 32) ?x1391) true)) (bvsub ?x4154 (_ bv1 32)) ?x4154)))
(let ((?x3946 (bvadd ?x4728 (bvadd (_ bv0 32) ?x5455))))
(let (($x2783 (or (and (= (bvsmod ?x3946 (_ bv4 32)) (_ bv0 32)) (and (distinct (bvsmod ?x3946 (_ bv100 32)) (_ bv0 32)) true)) (= (bvsmod ?x3946 (_ bv400 32)) (_ bv0 32)))))
(let ((?x5971 (ite (= ?x5611 (_ bv2 32)) (ite $x2783 (_ bv29 32) (_ bv28 32)) ?x3406)))
(let ((?x5886 (ite (bvsgt (_ bv1 32) ?x3075) (_ bv1 32) (ite (bvsgt ?x3075 ?x5971) ?x5971 ?x3075))))
(let ((?x1525 (ite (bvsgt (_ bv1 32) ?x5886) (_ bv1 32) (ite (bvsgt ?x5886 ?x5971) ?x5971 ?x5886))))
(let ((?x5925 (ite (= (_ bv2 32) ?x5611) (ite $x2783 (_ bv31 32) (_ bv31 32)) (ite (= (_ bv1 32) ?x5611) (ite $x2783 (_ bv0 32) (_ bv0 32)) (_ bv0 32)))))
(let ((?x4364 (ite (= (_ bv4 32) ?x5611) (ite $x2783 (_ bv91 32) (_ bv90 32)) (ite (= (_ bv3 32) ?x5611) (ite $x2783 (_ bv60 32) (_ bv59 32)) ?x5925))))
(let ((?x6008 (ite (= (_ bv6 32) ?x5611) (ite $x2783 (_ bv152 32) (_ bv151 32)) (ite (= (_ bv5 32) ?x5611) (ite $x2783 (_ bv121 32) (_ bv120 32)) ?x4364))))
(let ((?x1376 (ite (= (_ bv8 32) ?x5611) (ite $x2783 (_ bv213 32) (_ bv212 32)) (ite (= (_ bv7 32) ?x5611) (ite $x2783 (_ bv182 32) (_ bv181 32)) ?x6008))))
(let ((?x2836 (ite (= (_ bv10 32) ?x5611) (ite $x2783 (_ bv274 32) (_ bv273 32)) (ite (= (_ bv9 32) ?x5611) (ite $x2783 (_ bv244 32) (_ bv243 32)) ?x1376))))
(let ((?x3906 (ite (= (_ bv12 32) ?x5611) (ite $x2783 (_ bv335 32) (_ bv334 32)) (ite (= (_ bv11 32) ?x5611) (ite $x2783 (_ bv305 32) (_ bv304 32)) ?x2836))))
(let ((?x4824 (bvadd (bvmul (_ bv365 32) (bvsub ?x3946 (_ bv1 32))) (bvsdiv (bvsub ?x3946 (_ bv1 32)) (_ bv4 32)))))
(let ((?x1783 (bvadd (bvsub ?x4824 (bvsdiv (bvsub ?x3946 (_ bv1 32)) (_ bv100 32))) (bvsdiv (bvsub ?x3946 (_ bv1 32)) (_ bv400 32)))))
(let ((?x1889 (bvadd (bvadd (bvsub (bvadd (bvadd ?x1783 ?x3906) (bvsub ?x1525 (_ bv1 32))) (_ bv730179 32)) (_ bv0 32)) (_ bv730179 32))))
(let ((?x1737 (bvsmod ?x1889 (_ bv146097 32))))
(let ((?x5801 (bvsdiv ?x1737 (_ bv36524 32))))
(let ((?x1664 (ite (bvsle (_ bv4 32) ?x5801) (_ bv3 32) ?x5801)))
(let ((?x4365 (bvsub ?x1737 (bvmul ?x1664 (_ bv36524 32)))))
(let ((?x5761 (bvsmod ?x4365 (_ bv1461 32))))
(let ((?x3299 (bvsdiv ?x5761 (_ bv365 32))))
(let ((?x2853 (ite (bvsle (_ bv4 32) ?x3299) (_ bv3 32) ?x3299)))
(let ((?x3274 (bvadd (bvadd (bvmul (bvsdiv ?x1889 (_ bv146097 32)) (_ bv400 32)) (bvmul ?x1664 (_ bv100 32))) (bvmul (bvsdiv ?x4365 (_ bv1461 32)) (_ bv4 32)))))
(let ((?x6195 (bvadd (bvadd ?x3274 ?x2853) (_ bv1 32))))
(let (($x826 (or (and (= (bvsmod ?x6195 (_ bv4 32)) (_ bv0 32)) (and (distinct (bvsmod ?x6195 (_ bv100 32)) (_ bv0 32)) true)) (= (bvsmod ?x6195 (_ bv400 32)) (_ bv0 32)))))
(let ((?x6029 (bvsub ?x5761 (bvmul ?x2853 (_ bv365 32)))))
(let ((?x4170 (ite $x826 (_ bv31 32) (_ bv31 32))))
(let (($x3187 (bvsge ?x6029 ?x4170)))
(let ((?x5037 (ite $x3187 (bvadd (bvsub ?x6029 ?x4170) (_ bv1 32)) (bvadd (bvsub ?x6029 (ite $x826 (_ bv0 32) (_ bv0 32))) (_ bv1 32)))))
(let ((?x5006 (ite $x826 (_ bv60 32) (_ bv59 32))))
(let (($x3972 (bvsge ?x6029 ?x5006)))
(let ((?x2059 (ite $x826 (_ bv91 32) (_ bv90 32))))
(let (($x3125 (bvsge ?x6029 ?x2059)))
(let ((?x4818 (ite $x3125 (bvadd (bvsub ?x6029 ?x2059) (_ bv1 32)) (ite $x3972 (bvadd (bvsub ?x6029 ?x5006) (_ bv1 32)) ?x5037))))
(let ((?x1329 (ite $x826 (_ bv121 32) (_ bv120 32))))
(let (($x789 (bvsge ?x6029 ?x1329)))
(let ((?x4618 (ite $x826 (_ bv152 32) (_ bv151 32))))
(let (($x1901 (bvsge ?x6029 ?x4618)))
(let ((?x837 (ite $x1901 (bvadd (bvsub ?x6029 ?x4618) (_ bv1 32)) (ite $x789 (bvadd (bvsub ?x6029 ?x1329) (_ bv1 32)) ?x4818))))
(let ((?x2873 (ite $x826 (_ bv182 32) (_ bv181 32))))
(let (($x2358 (bvsge ?x6029 ?x2873)))
(let ((?x3643 (ite $x826 (_ bv213 32) (_ bv212 32))))
(let (($x2370 (bvsge ?x6029 ?x3643)))
(let ((?x4881 (ite $x2370 (bvadd (bvsub ?x6029 ?x3643) (_ bv1 32)) (ite $x2358 (bvadd (bvsub ?x6029 ?x2873) (_ bv1 32)) ?x837))))
(let ((?x1640 (ite $x826 (_ bv244 32) (_ bv243 32))))
(let (($x5311 (bvsge ?x6029 ?x1640)))
(let ((?x2094 (ite $x826 (_ bv274 32) (_ bv273 32))))
(let (($x3379 (bvsge ?x6029 ?x2094)))
(let ((?x3241 (ite $x3379 (bvadd (bvsub ?x6029 ?x2094) (_ bv1 32)) (ite $x5311 (bvadd (bvsub ?x6029 ?x1640) (_ bv1 32)) ?x4881))))
(let ((?x1942 (ite $x826 (_ bv305 32) (_ bv304 32))))
(let (($x3430 (bvsge ?x6029 ?x1942)))
(let ((?x2177 (ite $x826 (_ bv335 32) (_ bv334 32))))
(let (($x5078 (bvsge ?x6029 ?x2177)))
(let ((?x1526 (ite $x5078 (bvadd (bvsub ?x6029 ?x2177) (_ bv1 32)) (ite $x3430 (bvadd (bvsub ?x6029 ?x1942) (_ bv1 32)) ?x3241))))
(let (($x3664 (= (_ bv0 32) (_ bv0 32))))
(let (($x4137 (and (= (bvsmod (ite $x3664 ?x3946 ?x6195) (_ bv4 32)) (_ bv0 32)) (and (distinct (bvsmod (ite $x3664 ?x3946 ?x6195) (_ bv100 32)) (_ bv0 32)) true))))
(let (($x5962 (or $x4137 (= (bvsmod (ite $x3664 ?x3946 ?x6195) (_ bv400 32)) (_ bv0 32)))))
(let ((?x1797 (ite $x1901 (_ bv6 32) (ite $x789 (_ bv5 32) (ite $x3125 (_ bv4 32) (ite $x3972 (_ bv3 32) (ite $x3187 (_ bv2 32) (_ bv1 32))))))))
(let ((?x5444 (ite $x3430 (_ bv11 32) (ite $x3379 (_ bv10 32) (ite $x5311 (_ bv9 32) (ite $x2370 (_ bv8 32) (ite $x2358 (_ bv7 32) ?x1797)))))))
(let ((?x1982 (ite $x3664 ?x5611 (ite $x5078 (_ bv12 32) ?x5444))))
(let ((?x4463 (ite (= (_ bv2 32) ?x1982) (ite $x5962 (_ bv31 32) (_ bv31 32)) (ite (= (_ bv1 32) ?x1982) (ite $x5962 (_ bv0 32) (_ bv0 32)) (_ bv0 32)))))
(let ((?x4300 (ite (= (_ bv4 32) ?x1982) (ite $x5962 (_ bv91 32) (_ bv90 32)) (ite (= (_ bv3 32) ?x1982) (ite $x5962 (_ bv60 32) (_ bv59 32)) ?x4463))))
(let ((?x3148 (ite (= (_ bv6 32) ?x1982) (ite $x5962 (_ bv152 32) (_ bv151 32)) (ite (= (_ bv5 32) ?x1982) (ite $x5962 (_ bv121 32) (_ bv120 32)) ?x4300))))
(let ((?x5805 (ite (= (_ bv8 32) ?x1982) (ite $x5962 (_ bv213 32) (_ bv212 32)) (ite (= (_ bv7 32) ?x1982) (ite $x5962 (_ bv182 32) (_ bv181 32)) ?x3148))))
(let ((?x4945 (ite (= (_ bv10 32) ?x1982) (ite $x5962 (_ bv274 32) (_ bv273 32)) (ite (= (_ bv9 32) ?x1982) (ite $x5962 (_ bv244 32) (_ bv243 32)) ?x5805))))
(let ((?x4589 (ite (= (_ bv12 32) ?x1982) (ite $x5962 (_ bv335 32) (_ bv334 32)) (ite (= (_ bv11 32) ?x1982) (ite $x5962 (_ bv305 32) (_ bv304 32)) ?x4945))))
(let ((?x4190 (bvadd (bvmul (_ bv365 32) (bvsub (ite $x3664 ?x3946 ?x6195) (_ bv1 32))) (bvsdiv (bvsub (ite $x3664 ?x3946 ?x6195) (_ bv1 32)) (_ bv4 32)))))
(let ((?x1974 (bvadd (bvsub ?x4190 (bvsdiv (bvsub (ite $x3664 ?x3946 ?x6195) (_ bv1 32)) (_ bv100 32))) (bvsdiv (bvsub (ite $x3664 ?x3946 ?x6195) (_ bv1 32)) (_ bv400 32)))))
(let ((?x2817 (bvsub (bvadd (bvadd ?x1974 ?x4589) (bvsub (ite $x3664 ?x1525 ?x1526) (_ bv1 32))) (_ bv730179 32))))
(not (= ?x2817 (bvadd x_days (_ bv366 32))))))))))))))))))))))))))))))))))))))))))))))))))))))))))))))))))))))))))))))))))))))))))))))))))))))))))))))))))))))))))
(check-sat)
